datasets/10l1i.nl
g3 3 1 0	# problem 10l1i
 26 24 1 0 11	# vars, constraints, objectives, ranges, eqns
 0 1	# nonlinear constraints, objectives
 0 0	# network constraints: nonlinear, linear
 0 15 0	# nonlinear vars in constraints, objectives, both
 0 0 0 1	# linear network variables; functions; arith, flags
 0 11 0 0 15	# discrete variables: binary, integer, nonlinear (b,c,o)
 94 21	# nonzeros in Jacobian, gradients
 0 0	# max name lengths: constraints, variables
 0 0 0 0 0	# common exprs: b,c,o,c1,o1
b
2 0
2 0
2 0
2 0
2 0
2 0
2 0
2 0
2 0
2 0
2 0
2 0
2 0
2 0
2 0
0 0 150
0 0 148
0 0 150
0 0 173
0 0 148
0 0 225
0 0 50
0 0 80
0 0 100
0 0 100
0 0 100
r
4 150
4 250
4 0
4 0
4 0
4 -50
4 -80
4 -110
4 -110
4 -150
4 100
1 173
1 148
1 225
1 50
1 80
1 110
1 110
1 150
1 150
1 250
1 173
1 148
1 225
C0
n0
C1
n0
C2
n0
C3
n0
C4
n0
C5
n0
C6
n0
C7
n0
C8
n0
C9
n0
C10
n0
C11
n0
C12
n0
C13
n0
C14
n0
C15
n0
C16
n0
C17
n0
C18
n0
C19
n0
C20
n0
C21
n0
C22
n0
C23
n0
O0 0
o54
5
o2
n10000
o5
o16
o3
o54
3
v0
v5
v10
n-50
n2
o2
n10000
o5
o16
o3
o54
3
v1
v6
v11
n-80
n2
o2
n10000
o5
o16
o3
o54
3
v2
v7
v12
n-110
n2
o2
n10000
o5
o16
o3
o54
3
v3
v8
v13
n-110
n2
o2
n10000
o5
o16
o3
o54
3
v4
v9
v14
n-150
n2
k25
4
8
12
16
20
24
28
32
36
40
44
48
52
56
60
64
68
72
76
80
84
86
88
90
92
J0 3
15 1
16 1
17 1
J1 3
18 1
19 1
20 1
J2 7
0 1
1 1
2 1
3 1
4 1
15 -1
18 -1
J3 7
5 1
6 1
7 1
8 1
9 1
16 -1
19 -1
J4 7
10 1
11 1
12 1
13 1
14 1
17 -1
20 -1
J5 4
0 -1
5 -1
10 -1
21 -1
J6 4
1 -1
6 -1
11 -1
22 -1
J7 4
2 -1
7 -1
12 -1
23 -1
J8 4
3 -1
8 -1
13 -1
24 -1
J9 4
4 -1
9 -1
14 -1
25 -1
J10 5
21 1
22 1
23 1
24 1
25 1
J11 2
15 1
18 1
J12 2
16 1
19 1
J13 2
17 1
20 1
J14 3
0 1
5 1
10 1
J15 3
1 1
6 1
11 1
J16 3
2 1
7 1
12 1
J17 3
3 1
8 1
13 1
J18 3
4 1
9 1
14 1
J19 3
15 1
16 1
17 1
J20 3
18 1
19 1
20 1
J21 5
0 1
1 1
2 1
3 1
4 1
J22 5
5 1
6 1
7 1
8 1
9 1
J23 5
10 1
11 1
12 1
13 1
14 1
G0 21
0 975
1 666
2 343
3 931
4 604
5 230
6 584
7 918
8 746
9 120
10 940
11 266
12 373
13 487
14 700
15 575
16 799
17 882
18 289
19 786
20 662
