datasets/10l1i.sol
 
couenne: Optimal

Options
3
3
1
0
24
0
26
26
0
0
109.99999999999999
0
27
25
0
0
0
123
0
80
0
35
0
0
148
2
137
0
113
25
0
1.4210854715202004e-14
75
0
objno 0 3
